
Welcome to IBM(R) ILOG(R) CPLEX(R) Interactive Optimizer 22.1.1.0
  with Simplex, Mixed Integer & Barrier Optimizers
5725-A06 5725-A29 5724-Y48 5724-Y49 5724-Y54 5724-Y55 5655-Y21
Copyright IBM Corp. 1988, 2022.  All Rights Reserved.

Type 'help' for a list of available commands.
Type 'help' followed by a command name for more
information on commands.

CPLEX> Selected objective sense:  MINIMIZE
Selected objective  name:  00000000
Selected RHS        name:  RHS1
Selected bound      name:  BOUND
Problem 'ee.mps' read.
Read time = 0.02 sec. (3.14 ticks)
CPLEX> New value for time limit in seconds: 7200
CPLEX> New value for parallel optimization mode: -1
CPLEX> New value for default parallel thread count: 40
CPLEX> New value for mixed integer optimality gap tolerance: 1e-13
CPLEX> Version identifier: 22.1.1.0 | 2022-11-28 | 9160aff4d
CPXPARAM_Threads                                 40
CPXPARAM_Parallel                                -1
CPXPARAM_TimeLimit                               7200
CPXPARAM_MIP_Tolerances_MIPGap                   1e-13
Found incumbent of value 0.000000 after 0.00 sec. (0.31 ticks)
Tried aggregator 2 times.
MIP Presolve eliminated 182 rows and 2745 columns.
MIP Presolve modified 5862 coefficients.
Aggregator did 713 substitutions.
Reduced MIP has 3623 rows, 7739 columns, and 28643 nonzeros.
Reduced MIP has 7739 binaries, 0 generals, 0 SOSs, and 0 indicators.
Presolve time = 0.06 sec. (68.57 ticks)
Probing time = 0.03 sec. (5.29 ticks)
Tried aggregator 1 time.
Detecting symmetries...
Reduced MIP has 3623 rows, 7739 columns, and 28643 nonzeros.
Reduced MIP has 7739 binaries, 0 generals, 0 SOSs, and 0 indicators.
Presolve time = 0.02 sec. (21.83 ticks)
Probing time = 0.02 sec. (5.09 ticks)
Clique table members: 18551.
MIP emphasis: balance optimality and feasibility.
MIP search method: dynamic search.
Parallel mode: opportunistic, using up to 40 threads.
Root relaxation solution time = 0.08 sec. (66.09 ticks)

        Nodes                                         Cuts/
   Node  Left     Objective  IInf  Best Integer    Best Bound    ItCnt     Gap

*     0+    0                            0.0000  -1.31000e+13              --- 
*     0+    0                      -3.30000e+12  -1.31000e+13           296.97%
*     0+    0                      -4.40000e+12  -1.31000e+13           197.73%
*     0+    0                      -5.50000e+12  -1.31000e+13           138.18%
*     0+    0                      -7.70000e+12  -1.31000e+13            70.13%
      0     0  -1.30900e+13    33  -7.70000e+12  -1.30900e+13     2005   70.00%
*     0+    0                      -1.30900e+13  -1.30900e+13             0.00%
*     0+    0                      -1.30900e+13  -1.30900e+13             0.00%
      0     0  -1.30900e+13    69  -1.30900e+13      Cuts: 52     2649    0.00%
*     0+    0                      -1.30900e+13  -1.30900e+13             0.00%
*     0+    0                      -1.30900e+13  -1.30900e+13             0.00%
      0     0  -1.30900e+13   112  -1.30900e+13      Cuts: 44     2768    0.00%

Repeating presolve.
Tried aggregator 3 times.
MIP Presolve eliminated 1594 rows and 3786 columns.
MIP Presolve modified 100 coefficients.
Aggregator did 374 substitutions.
Reduced MIP has 1655 rows, 3553 columns, and 12449 nonzeros.
Reduced MIP has 3553 binaries, 0 generals, 0 SOSs, and 0 indicators.
Presolve time = 0.07 sec. (74.66 ticks)
Probing fixed 40 vars, tightened 0 bounds.
Probing time = 0.05 sec. (13.42 ticks)
Tried aggregator 2 times.
MIP Presolve eliminated 41 rows and 56 columns.
Aggregator did 9 substitutions.
Reduced MIP has 1605 rows, 3485 columns, and 12181 nonzeros.
Reduced MIP has 3485 binaries, 0 generals, 0 SOSs, and 0 indicators.
Presolve time = 0.03 sec. (19.73 ticks)
Probing time = 0.03 sec. (11.17 ticks)
Tried aggregator 1 time.
Detecting symmetries...
MIP Presolve eliminated 9 rows and 5 columns.
Reduced MIP has 1596 rows, 3480 columns, and 12152 nonzeros.
Reduced MIP has 3480 binaries, 0 generals, 0 SOSs, and 0 indicators.
Presolve time = 0.02 sec. (13.76 ticks)
Represolve time = 0.22 sec. (151.90 ticks)
Probing time = 0.04 sec. (9.80 ticks)
Clique table members: 8287.
MIP emphasis: balance optimality and feasibility.
MIP search method: dynamic search.
Parallel mode: opportunistic, using up to 40 threads.
Root relaxation solution time = 0.06 sec. (30.12 ticks)

        Nodes                                         Cuts/
   Node  Left     Objective  IInf  Best Integer    Best Bound    ItCnt     Gap

*     0+    0                      -1.30900e+13  -1.30900e+13             0.00%
      0     0  -1.30900e+13    56  -1.30900e+13  -1.30900e+13     3779    0.00%
      0     0  -1.30900e+13   121  -1.30900e+13      Cuts: 47     3922    0.00%
      0     0  -1.30900e+13   162  -1.30900e+13      Cuts: 60     4045    0.00%
*     0+    0                      -1.30900e+13  -1.30900e+13             0.00%
      0     2  -1.30900e+13   151  -1.30900e+13  -1.30900e+13     4045    0.00%
Elapsed time = 1.66 sec. (1037.20 ticks, tree = 0.02 MB, solutions = 12)
    348    13  -1.30900e+13   147  -1.30900e+13  -1.30900e+13    39947    0.00%

GUB cover cuts applied:  2
Clique cuts applied:  25
Cover cuts applied:  310
Flow cuts applied:  6
Mixed integer rounding cuts applied:  3
Zero-half cuts applied:  5
Lift and project cuts applied:  12
Gomory fractional cuts applied:  18

Root node processing (before b&c):
  Real time             =    1.31 sec. (1036.89 ticks)
Parallel b&c, 40 threads:
  Real time             =    1.32 sec. (309.49 ticks)
  Sync time (average)   =    0.78 sec.
  Wait time (average)   =    0.00 sec.
                          ------------
Total (root+branch&cut) =    2.63 sec. (1346.37 ticks)

Solution pool: 12 solutions saved.

MIP - Integer optimal solution:  Objective = -1.3089999990e+13
Solution time =    2.69 sec.  Iterations = 40257  Nodes = 367
Deterministic time = 1346.41 ticks  (499.70 ticks/sec)

CPLEX> Solution 'p13' written to file 'ee.sol'.
CPLEX> 